# Objective value = 1.2376404720279215e-01
IOCost -0
CCost 6200
RCost 3.6000000000000291e+01
PCost 4.7199999999999989e+02
DCx(rec1,rec2) 0
DCx(rec3,rec1) 0
DCy(rec1,rec2) 30
DCy(rec3,rec1) 50
DRes(rec1,CLB) 0
DRes(rec1,DSP) 1.6000000000000043e+01
DRes(rec1,BRAM) 8.0000000000000107e+00
DRes(rec2,CLB) 0
DRes(rec2,DSP) 8.0000000000000178e+00
DRes(rec2,BRAM) 0
DRes(rec3,CLB) 0
DRes(rec3,DSP) 4.0000000000002025e+00
DRes(rec3,BRAM) 8.8817841970012539e-15
DRes(rec4,CLB) 0
DRes(rec4,DSP) 3.5527136788005025e-15
DRes(rec4,BRAM) 8.8817841970012539e-15
w(rec1) 27
w(rec2) 17
w(rec3) 11
w(rec4) 9
a(rec1) 2
a(rec2) 1
a(rec3) 1
a(rec4) 1
x(rec1) 9
Cx(rec1) 46
x(rec2) 14
Cx(rec2) 4.5999999999999979e+01
x(rec3) 17
Cx(rec3) 46
x(rec4) 30
Cx(rec4) 7.0000000000000057e+01
y(rec1) 3
Cy(rec1) 60
y(rec2) 2
Cy(rec2) 30
y(rec3) 1
Cy(rec3) 10
y(rec4) 1
Cy(rec4) 10
DCx(rec1,rec3) 0
DCx(rec1,rec4) 2.4000000000000057e+01
DCx(rec2,rec1) 0
DCx(rec2,rec3) 0
DCx(rec2,rec4) 2.4000000000000078e+01
DCx(rec3,rec2) 0
DCx(rec3,rec4) 2.4000000000000057e+01
DCx(rec4,rec1) 2.4000000000000057e+01
DCx(rec4,rec2) 2.4000000000000078e+01
DCx(rec4,rec3) 2.4000000000000057e+01
absX(rec1,rec2) 0
absX(rec1,rec3) 0
absX(rec1,rec4) 1
absX(rec2,rec3) 1
absX(rec2,rec4) 1
absX(rec3,rec4) 1
DCy(rec1,rec3) 50
DCy(rec1,rec4) 50
DCy(rec2,rec1) 30
DCy(rec2,rec3) 20
DCy(rec2,rec4) 20
DCy(rec3,rec2) 20
DCy(rec3,rec4) 0
DCy(rec4,rec1) 50
DCy(rec4,rec2) 20
DCy(rec4,rec3) 0
absY(rec1,rec2) 0
absY(rec1,rec3) 0
absY(rec1,rec4) 0
absY(rec2,rec3) 0
absY(rec2,rec4) 0
absY(rec3,rec4) 1
DBx(rec1,rec2) 0
DBx(rec1,rec3) 0
DBx(rec1,rec4) 0
DBx(rec2,rec1) 0
DBx(rec2,rec3) 0
DBx(rec2,rec4) 0
DBx(rec3,rec1) 0
DBx(rec3,rec2) 0
DBx(rec3,rec4) 5
DBx(rec4,rec1) 0
DBx(rec4,rec2) 0
DBx(rec4,rec3) 5
DBy(rec1,rec2) 0
DBy(rec1,rec3) 20
DBy(rec1,rec4) 20
DBy(rec2,rec1) 0
DBy(rec2,rec3) 0
DBy(rec2,rec4) 0
DBy(rec3,rec1) 20
DBy(rec3,rec2) 0
DBy(rec3,rec4) 0
DBy(rec4,rec1) 20
DBy(rec4,rec2) 0
DBy(rec4,rec3) 0
h(rec1,1) 0
h(rec1,2) 0
h(rec1,3) 1
h(rec1,4) 1
h(rec1,5) 0
h(rec1,6) 0
h(rec1,7) 0
h(rec2,1) 0
h(rec2,2) 1
h(rec2,3) 0
h(rec2,4) 0
h(rec2,5) 0
h(rec2,6) 0
h(rec2,7) 0
h(rec3,1) 1
h(rec3,2) 0
h(rec3,3) 0
h(rec3,4) 0
h(rec3,5) 0
h(rec3,6) 0
h(rec3,7) 0
h(rec4,1) 1
h(rec4,2) 0
h(rec4,3) 0
h(rec4,4) 0
h(rec4,5) 0
h(rec4,6) 0
h(rec4,7) 0
y2(rec1) 4
h(rec1,8) 0
y2(rec2) 2
h(rec2,8) 0
y2(rec3) 1
h(rec3,8) 0
y2(rec4) 1
h(rec4,8) 0
g1(rec1,rec2) 1
g1(rec1,rec3) 1
g1(rec1,rec4) 1
g1(rec2,rec3) 1
g1(rec2,rec4) 1
g1(rec3,rec4) 0
k1(rec1,por2) 0
k1(rec1,por3) 1
k1(rec1,por4) 1
k1(rec1,por5) 1
k1(rec1,por6) 1
k1(rec1,por7) 1
k1(rec1,por8) 1
k1(rec1,por9) 1
k1(rec1,por10) 0
k1(rec1,por11) 0
k1(rec1,por12) 0
k1(rec1,por13) 0
k1(rec1,por14) 0
k1(rec1,por15) 0
k1(rec2,por2) 0
k1(rec2,por3) 1
k1(rec2,por4) 1
k1(rec2,por5) 1
k1(rec2,por6) 1
k1(rec2,por7) 1
k1(rec2,por8) 1
k1(rec2,por9) 1
k1(rec2,por10) 0
k1(rec2,por11) 0
k1(rec2,por12) 0
k1(rec2,por13) 0
k1(rec2,por14) 0
k1(rec2,por15) 0
k1(rec3,por2) 0
k1(rec3,por3) 0
k1(rec3,por4) 0
k1(rec3,por5) 1
k1(rec3,por6) 1
k1(rec3,por7) 1
k1(rec3,por8) 1
k1(rec3,por9) 1
k1(rec3,por10) 0
k1(rec3,por11) 0
k1(rec3,por12) 0
k1(rec3,por13) 0
k1(rec3,por14) 0
k1(rec3,por15) 0
k1(rec4,por2) 0
k1(rec4,por3) 0
k1(rec4,por4) 0
k1(rec4,por5) 0
k1(rec4,por6) 0
k1(rec4,por7) 0
k1(rec4,por8) 0
k1(rec4,por9) 1
k1(rec4,por10) 0
k1(rec4,por11) 0
k1(rec4,por12) 0
k1(rec4,por13) 0
k1(rec4,por14) 0
k1(rec4,por15) 0
k1(rec1,por1) 0
k1(rec2,por1) 0
k1(rec3,por1) 0
k1(rec4,por1) 0
l(rec1,por1,1) 8.8817841970012563e-16
l(rec1,por1,2) 0
l(rec1,por1,3) 0
l(rec1,por1,4) 0
l(rec1,por1,5) 0
l(rec1,por1,6) 0
l(rec1,por1,7) 0
l(rec1,por1,8) 0
l(rec1,por2,1) 2.2204460492503141e-16
l(rec1,por2,2) 0
l(rec1,por2,3) 0
l(rec1,por2,4) 0
l(rec1,por2,5) 0
l(rec1,por2,6) 0
l(rec1,por2,7) 0
l(rec1,por2,8) 0
l(rec1,por3,1) 1.7763568394002513e-15
l(rec1,por3,2) 0
l(rec1,por3,3) 6
l(rec1,por3,4) 6
l(rec1,por3,5) 0
l(rec1,por3,6) 0
l(rec1,por3,7) 0
l(rec1,por3,8) 0
l(rec1,por4,1) 2.2204460492503141e-16
l(rec1,por4,2) 0
l(rec1,por4,3) 1.0000000000000004e+00
l(rec1,por4,4) 1.0000000000000004e+00
l(rec1,por4,5) 0
l(rec1,por4,6) 0
l(rec1,por4,7) 0
l(rec1,por4,8) 0
l(rec1,por5,1) 4.4408920985006281e-16
l(rec1,por5,2) 0
l(rec1,por5,3) 2
l(rec1,por5,4) 2
l(rec1,por5,5) 0
l(rec1,por5,6) 0
l(rec1,por5,7) 0
l(rec1,por5,8) 0
l(rec1,por6,1) 2.2204460492503141e-16
l(rec1,por6,2) 0
l(rec1,por6,3) 1
l(rec1,por6,4) 1.0000000000000053e+00
l(rec1,por6,5) 0
l(rec1,por6,6) 0
l(rec1,por6,7) 0
l(rec1,por6,8) 0
l(rec1,por7,1) 1.7763568394002513e-15
l(rec1,por7,2) 0
l(rec1,por7,3) 8
l(rec1,por7,4) 8
l(rec1,por7,5) 0
l(rec1,por7,6) 0
l(rec1,por7,7) 0
l(rec1,por7,8) 0
l(rec1,por8,1) 2.2204460492503141e-16
l(rec1,por8,2) 0
l(rec1,por8,3) 1
l(rec1,por8,4) 1
l(rec1,por8,5) 0
l(rec1,por8,6) 0
l(rec1,por8,7) 0
l(rec1,por8,8) 0
l(rec1,por9,1) 3.5527136788005025e-15
l(rec1,por9,2) 0
l(rec1,por9,3) 9
l(rec1,por9,4) 8.9999999999999947e+00
l(rec1,por9,5) 0
l(rec1,por9,6) 0
l(rec1,por9,7) 0
l(rec1,por9,8) 0
l(rec1,por10,1) 2.2204460492503141e-16
l(rec1,por10,2) 0
l(rec1,por10,3) 0
l(rec1,por10,4) 0
l(rec1,por10,5) 0
l(rec1,por10,6) 0
l(rec1,por10,7) 0
l(rec1,por10,8) 0
l(rec1,por11,1) 1.7763568394002513e-15
l(rec1,por11,2) 0
l(rec1,por11,3) 0
l(rec1,por11,4) 0
l(rec1,por11,5) 0
l(rec1,por11,6) 0
l(rec1,por11,7) 0
l(rec1,por11,8) 0
l(rec1,por12,1) 2.2204460492503141e-16
l(rec1,por12,2) 0
l(rec1,por12,3) 0
l(rec1,por12,4) 0
l(rec1,por12,5) 0
l(rec1,por12,6) 0
l(rec1,por12,7) 0
l(rec1,por12,8) 0
l(rec1,por13,1) 8.8817841970012563e-16
l(rec1,por13,2) 0
l(rec1,por13,3) 0
l(rec1,por13,4) 0
l(rec1,por13,5) 0
l(rec1,por13,6) 0
l(rec1,por13,7) 0
l(rec1,por13,8) 0
l(rec1,por14,1) 2.2204460492503141e-16
l(rec1,por14,2) 0
l(rec1,por14,3) 0
l(rec1,por14,4) 0
l(rec1,por14,5) 0
l(rec1,por14,6) 0
l(rec1,por14,7) 0
l(rec1,por14,8) 0
l(rec1,por15,1) 8.8817841970012563e-16
l(rec1,por15,2) 0
l(rec1,por15,3) 0
l(rec1,por15,4) 0
l(rec1,por15,5) 0
l(rec1,por15,6) 0
l(rec1,por15,7) 0
l(rec1,por15,8) 0
l(rec2,por1,1) 8.8817841970012563e-16
l(rec2,por1,2) 0
l(rec2,por1,3) 0
l(rec2,por1,4) 0
l(rec2,por1,5) 0
l(rec2,por1,6) 0
l(rec2,por1,7) 0
l(rec2,por1,8) 8.8817841970012563e-16
l(rec2,por2,1) 2.2204460492503141e-16
l(rec2,por2,2) 0
l(rec2,por2,3) 0
l(rec2,por2,4) 0
l(rec2,por2,5) 0
l(rec2,por2,6) 0
l(rec2,por2,7) 0
l(rec2,por2,8) 2.2204460492503141e-16
l(rec2,por3,1) 1.7763568394002513e-15
l(rec2,por3,2) 1
l(rec2,por3,3) 0
l(rec2,por3,4) 0
l(rec2,por3,5) 0
l(rec2,por3,6) 0
l(rec2,por3,7) 0
l(rec2,por3,8) 1.7763568394002513e-15
l(rec2,por4,1) 2.2204460492503141e-16
l(rec2,por4,2) 1.0000000000000004e+00
l(rec2,por4,3) 0
l(rec2,por4,4) 0
l(rec2,por4,5) 0
l(rec2,por4,6) 0
l(rec2,por4,7) 0
l(rec2,por4,8) 2.2204460492503141e-16
l(rec2,por5,1) 4.4408920985006281e-16
l(rec2,por5,2) 2
l(rec2,por5,3) 0
l(rec2,por5,4) 0
l(rec2,por5,5) 0
l(rec2,por5,6) 0
l(rec2,por5,7) 0
l(rec2,por5,8) 4.4408920985006281e-16
l(rec2,por6,1) 2.2204460492503141e-16
l(rec2,por6,2) 1.0000000000000018e+00
l(rec2,por6,3) 0
l(rec2,por6,4) 0
l(rec2,por6,5) 0
l(rec2,por6,6) 0
l(rec2,por6,7) 0
l(rec2,por6,8) 2.2204460492503141e-16
l(rec2,por7,1) 1.7763568394002513e-15
l(rec2,por7,2) 8
l(rec2,por7,3) 0
l(rec2,por7,4) 0
l(rec2,por7,5) 0
l(rec2,por7,6) 0
l(rec2,por7,7) 0
l(rec2,por7,8) 1.7763568394002513e-15
l(rec2,por8,1) 2.2204460492503141e-16
l(rec2,por8,2) 1
l(rec2,por8,3) 0
l(rec2,por8,4) 0
l(rec2,por8,5) 0
l(rec2,por8,6) 0
l(rec2,por8,7) 0
l(rec2,por8,8) 2.2204460492503141e-16
l(rec2,por9,1) 3.5527136788005025e-15
l(rec2,por9,2) 3.9999999999999774e+00
l(rec2,por9,3) 0
l(rec2,por9,4) 0
l(rec2,por9,5) 0
l(rec2,por9,6) 0
l(rec2,por9,7) 0
l(rec2,por9,8) 3.5527136788005025e-15
l(rec2,por10,1) 2.2204460492503141e-16
l(rec2,por10,2) 0
l(rec2,por10,3) 0
l(rec2,por10,4) 0
l(rec2,por10,5) 0
l(rec2,por10,6) 0
l(rec2,por10,7) 0
l(rec2,por10,8) 2.2204460492503141e-16
l(rec2,por11,1) 1.7763568394002513e-15
l(rec2,por11,2) 0
l(rec2,por11,3) 0
l(rec2,por11,4) 0
l(rec2,por11,5) 0
l(rec2,por11,6) 0
l(rec2,por11,7) 0
l(rec2,por11,8) 1.7763568394002513e-15
l(rec2,por12,1) 2.2204460492503141e-16
l(rec2,por12,2) 0
l(rec2,por12,3) 0
l(rec2,por12,4) 0
l(rec2,por12,5) 0
l(rec2,por12,6) 0
l(rec2,por12,7) 0
l(rec2,por12,8) 2.2204460492503141e-16
l(rec2,por13,1) 8.8817841970012563e-16
l(rec2,por13,2) 0
l(rec2,por13,3) 0
l(rec2,por13,4) 0
l(rec2,por13,5) 0
l(rec2,por13,6) 0
l(rec2,por13,7) 0
l(rec2,por13,8) 8.8817841970012563e-16
l(rec2,por14,1) 2.2204460492503141e-16
l(rec2,por14,2) 0
l(rec2,por14,3) 0
l(rec2,por14,4) 0
l(rec2,por14,5) 0
l(rec2,por14,6) 0
l(rec2,por14,7) 0
l(rec2,por14,8) 2.2204460492503141e-16
l(rec2,por15,1) 8.8817841970012563e-16
l(rec2,por15,2) 0
l(rec2,por15,3) 0
l(rec2,por15,4) 0
l(rec2,por15,5) 0
l(rec2,por15,6) 0
l(rec2,por15,7) 0
l(rec2,por15,8) 8.8817841970012563e-16
l(rec3,por1,1) 0
l(rec3,por1,2) 0
l(rec3,por1,3) 0
l(rec3,por1,4) 0
l(rec3,por1,5) 0
l(rec3,por1,6) 0
l(rec3,por1,7) 8.8817841970012563e-16
l(rec3,por1,8) 8.8817841970012563e-16
l(rec3,por2,1) 0
l(rec3,por2,2) 0
l(rec3,por2,3) 0
l(rec3,por2,4) 0
l(rec3,por2,5) 0
l(rec3,por2,6) 0
l(rec3,por2,7) 2.2204460492503141e-16
l(rec3,por2,8) 2.2204460492503141e-16
l(rec3,por3,1) 0
l(rec3,por3,2) 0
l(rec3,por3,3) 0
l(rec3,por3,4) 0
l(rec3,por3,5) 0
l(rec3,por3,6) 0
l(rec3,por3,7) 1.7763568394002513e-15
l(rec3,por3,8) 1.7763568394002513e-15
l(rec3,por4,1) 0
l(rec3,por4,2) 0
l(rec3,por4,3) 0
l(rec3,por4,4) 0
l(rec3,por4,5) 0
l(rec3,por4,6) 0
l(rec3,por4,7) 2.2204460492503141e-16
l(rec3,por4,8) 2.2204460492503141e-16
l(rec3,por5,1) 1
l(rec3,por5,2) 0
l(rec3,por5,3) 0
l(rec3,por5,4) 0
l(rec3,por5,5) 0
l(rec3,por5,6) 0
l(rec3,por5,7) 4.4408920985006281e-16
l(rec3,por5,8) 4.4408920985006281e-16
l(rec3,por6,1) 1.0000000000000249e+00
l(rec3,por6,2) 0
l(rec3,por6,3) 0
l(rec3,por6,4) 0
l(rec3,por6,5) 0
l(rec3,por6,6) 0
l(rec3,por6,7) 2.2204460492503141e-16
l(rec3,por6,8) 2.2204460492503141e-16
l(rec3,por7,1) 8.0000000000000036e+00
l(rec3,por7,2) 0
l(rec3,por7,3) 0
l(rec3,por7,4) 0
l(rec3,por7,5) 0
l(rec3,por7,6) 0
l(rec3,por7,7) 1.7763568394002513e-15
l(rec3,por7,8) 1.7763568394002513e-15
l(rec3,por8,1) 1
l(rec3,por8,2) 0
l(rec3,por8,3) 0
l(rec3,por8,4) 0
l(rec3,por8,5) 0
l(rec3,por8,6) 0
l(rec3,por8,7) 2.2204460492503141e-16
l(rec3,por8,8) 2.2204460492503141e-16
l(rec3,por9,1) 9.9999999999997158e-01
l(rec3,por9,2) 0
l(rec3,por9,3) 0
l(rec3,por9,4) 0
l(rec3,por9,5) 0
l(rec3,por9,6) 0
l(rec3,por9,7) 3.5527136788005025e-15
l(rec3,por9,8) 3.5527136788005025e-15
l(rec3,por10,1) 0
l(rec3,por10,2) 0
l(rec3,por10,3) 0
l(rec3,por10,4) 0
l(rec3,por10,5) 0
l(rec3,por10,6) 0
l(rec3,por10,7) 2.2204460492503141e-16
l(rec3,por10,8) 2.2204460492503141e-16
l(rec3,por11,1) 0
l(rec3,por11,2) 0
l(rec3,por11,3) 0
l(rec3,por11,4) 0
l(rec3,por11,5) 0
l(rec3,por11,6) 0
l(rec3,por11,7) 1.7763568394002513e-15
l(rec3,por11,8) 1.7763568394002513e-15
l(rec3,por12,1) 0
l(rec3,por12,2) 0
l(rec3,por12,3) 0
l(rec3,por12,4) 0
l(rec3,por12,5) 0
l(rec3,por12,6) 0
l(rec3,por12,7) 2.2204460492503141e-16
l(rec3,por12,8) 2.2204460492503141e-16
l(rec3,por13,1) 0
l(rec3,por13,2) 0
l(rec3,por13,3) 0
l(rec3,por13,4) 0
l(rec3,por13,5) 0
l(rec3,por13,6) 0
l(rec3,por13,7) 8.8817841970012563e-16
l(rec3,por13,8) 8.8817841970012563e-16
l(rec3,por14,1) 0
l(rec3,por14,2) 0
l(rec3,por14,3) 0
l(rec3,por14,4) 0
l(rec3,por14,5) 0
l(rec3,por14,6) 0
l(rec3,por14,7) 2.2204460492503141e-16
l(rec3,por14,8) 2.2204460492503141e-16
l(rec3,por15,1) 0
l(rec3,por15,2) 0
l(rec3,por15,3) 0
l(rec3,por15,4) 0
l(rec3,por15,5) 0
l(rec3,por15,6) 0
l(rec3,por15,7) 8.8817841970012563e-16
l(rec3,por15,8) 8.8817841970012563e-16
l(rec4,por1,1) 0
l(rec4,por1,2) 0
l(rec4,por1,3) 0
l(rec4,por1,4) 0
l(rec4,por1,5) 0
l(rec4,por1,6) 0
l(rec4,por1,7) 8.8817841970012563e-16
l(rec4,por1,8) 8.8817841970012563e-16
l(rec4,por2,1) 0
l(rec4,por2,2) 0
l(rec4,por2,3) 0
l(rec4,por2,4) 0
l(rec4,por2,5) 0
l(rec4,por2,6) 0
l(rec4,por2,7) 2.2204460492503141e-16
l(rec4,por2,8) 2.2204460492503141e-16
l(rec4,por3,1) 0
l(rec4,por3,2) 0
l(rec4,por3,3) 0
l(rec4,por3,4) 0
l(rec4,por3,5) 0
l(rec4,por3,6) 0
l(rec4,por3,7) 1.7763568394002513e-15
l(rec4,por3,8) 1.7763568394002513e-15
l(rec4,por4,1) 0
l(rec4,por4,2) 0
l(rec4,por4,3) 0
l(rec4,por4,4) 0
l(rec4,por4,5) 0
l(rec4,por4,6) 0
l(rec4,por4,7) 2.2204460492503141e-16
l(rec4,por4,8) 2.2204460492503141e-16
l(rec4,por5,1) 0
l(rec4,por5,2) 0
l(rec4,por5,3) 0
l(rec4,por5,4) 0
l(rec4,por5,5) 0
l(rec4,por5,6) 0
l(rec4,por5,7) 4.4408920985006281e-16
l(rec4,por5,8) 4.4408920985006281e-16
l(rec4,por6,1) 0
l(rec4,por6,2) 0
l(rec4,por6,3) 0
l(rec4,por6,4) 0
l(rec4,por6,5) 0
l(rec4,por6,6) 0
l(rec4,por6,7) 2.2204460492503141e-16
l(rec4,por6,8) 2.2204460492503141e-16
l(rec4,por7,1) 0
l(rec4,por7,2) 0
l(rec4,por7,3) 0
l(rec4,por7,4) 0
l(rec4,por7,5) 0
l(rec4,por7,6) 0
l(rec4,por7,7) 1.7763568394002513e-15
l(rec4,por7,8) 1.7763568394002513e-15
l(rec4,por8,1) 0
l(rec4,por8,2) 0
l(rec4,por8,3) 0
l(rec4,por8,4) 0
l(rec4,por8,5) 0
l(rec4,por8,6) 0
l(rec4,por8,7) 2.2204460492503141e-16
l(rec4,por8,8) 2.2204460492503141e-16
l(rec4,por9,1) 9.9999999999999751e+00
l(rec4,por9,2) 0
l(rec4,por9,3) 0
l(rec4,por9,4) 0
l(rec4,por9,5) 0
l(rec4,por9,6) 0
l(rec4,por9,7) 3.5527136788005025e-15
l(rec4,por9,8) 3.5527136788005025e-15
l(rec4,por10,1) 0
l(rec4,por10,2) 0
l(rec4,por10,3) 0
l(rec4,por10,4) 0
l(rec4,por10,5) 0
l(rec4,por10,6) 0
l(rec4,por10,7) 2.2204460492503141e-16
l(rec4,por10,8) 2.2204460492503141e-16
l(rec4,por11,1) 0
l(rec4,por11,2) 0
l(rec4,por11,3) 0
l(rec4,por11,4) 0
l(rec4,por11,5) 0
l(rec4,por11,6) 0
l(rec4,por11,7) 1.7763568394002513e-15
l(rec4,por11,8) 1.7763568394002513e-15
l(rec4,por12,1) 0
l(rec4,por12,2) 0
l(rec4,por12,3) 0
l(rec4,por12,4) 0
l(rec4,por12,5) 0
l(rec4,por12,6) 0
l(rec4,por12,7) 2.2204460492503141e-16
l(rec4,por12,8) 2.2204460492503141e-16
l(rec4,por13,1) 0
l(rec4,por13,2) 0
l(rec4,por13,3) 0
l(rec4,por13,4) 0
l(rec4,por13,5) 0
l(rec4,por13,6) 0
l(rec4,por13,7) 8.8817841970012563e-16
l(rec4,por13,8) 8.8817841970012563e-16
l(rec4,por14,1) 0
l(rec4,por14,2) 0
l(rec4,por14,3) 0
l(rec4,por14,4) 0
l(rec4,por14,5) 0
l(rec4,por14,6) 0
l(rec4,por14,7) 2.2204460492503141e-16
l(rec4,por14,8) 2.2204460492503141e-16
l(rec4,por15,1) 0
l(rec4,por15,2) 0
l(rec4,por15,3) 0
l(rec4,por15,4) 0
l(rec4,por15,5) 0
l(rec4,por15,6) 0
l(rec4,por15,7) 8.8817841970012563e-16
l(rec4,por15,8) 8.8817841970012563e-16
DCx(rec1,rec1) 0
DCy(rec1,rec1) 0
DCx(rec2,rec2) 0
DCy(rec2,rec2) 0
DCx(rec3,rec3) 0
DCy(rec3,rec3) 0
DCx(rec4,rec4) 0
DCy(rec4,rec4) 0
